p cnf 15 60
7 13 14 0
5 9 12 0
4 7 14 0
1 6 13 0
4 6 7 0
9 10 11 0
3 9 12 0
2 5 10 0
1 6 15 0
2 3 8 0
10 11 13 0
8 12 14 0
1 2 15 0
4 8 11 0
3 5 15 0
-7 -13 0
-7 -14 0
-13 -14 0
-5 -9 0
-5 -12 0
-9 -12 0
-4 -7 0
-4 -14 0
-7 -14 0
-1 -6 0
-1 -13 0
-6 -13 0
-4 -6 0
-4 -7 0
-6 -7 0
-9 -10 0
-9 -11 0
-10 -11 0
-3 -9 0
-3 -12 0
-9 -12 0
-2 -5 0
-2 -10 0
-5 -10 0
-1 -6 0
-1 -15 0
-6 -15 0
-2 -3 0
-2 -8 0
-3 -8 0
-10 -11 0
-10 -13 0
-11 -13 0
-8 -12 0
-8 -14 0
-12 -14 0
-1 -2 0
-1 -15 0
-2 -15 0
-4 -8 0
-4 -11 0
-8 -11 0
-3 -5 0
-3 -15 0
-5 -15 0
